Route 1: 0 13 75 37 1 83 2 99 72 73 52 0
Route 2: 0 22 60 50 11 53 80 38 10 40 0
Route 3: 0 27 67 93 45 51 74 15 0
Route 4: 0 23 48 55 77 90 54 89 0
Route 5: 0 88 58 28 86 33 68 31 82 32 94 70 84 0
Route 6: 0 7 24 100 35 65 26 18 91 20 0
Route 7: 0 57 92 43 79 19 12 0
Route 8: 0 36 96 29 63 5 49 78 61 39 4 14 0
Route 9: 0 41 17 69 87 98 44 95 0
Route 10: 0 42 9 46 8 47 97 25 56 62 64 0
Route 11: 0 16 85 30 76 71 81 66 34 21 6 59 0
Route 12: 0 3 0
